
 102   30
  10   10   10   10   10   10   10   10   10   10   10   10   10   10   10   10   10   10   10   10   10   10   10   10   10   10   10   10   10   10

   0   0   0   0   0   0   0   0   0   0   0   0   0   0   0   0   0   0   0   0   0   0   0   0   0   0   0   0   0   0   0  28 2 3 4 5 6 7 8 9 10 12 13 14 16 17 18 19 21 22 24 25 27 28 30 31 33 40 41 49 
   8   0   0   0   0   0   0   0   0   0   0   0   0   1   0   0   0   0   0   0   0   0   0   0   0   0   0   0   0   0   0  15 76 70 65 62 57 55 53 52 50 42 39 36 32 26 11 
   3   1   0   0   0   0   1   2   1   0   0   0   0   0   0   0   0   1   0   0   0   0   0   0   0   1   0   0   0   0   0  13 101 68 65 64 62 60 56 54 45 44 42 23 15 
   5   8   0   0   0   0   0   0   0   0   1   0   0   0   0   0   0   0   0   0   0   0   0   1   0   0   0   0   0   0   0  14 76 74 69 66 64 63 59 56 48 42 39 34 29 26 
   4   0   0   0   0   0   0   3   0   1   0   1   1   0   3   0   0   0   0   0   0   0   0   0   0   0   0   0   0   0   0   9 63 60 57 55 53 52 48 35 20 
   5   0   0   0   0   0   0   0   0   0   0   7   0   0   0   0   0   0   0   0   0   0   0   5   0   0   0   0   0   2   0  24 101 99 96 93 92 76 75 74 73 72 70 69 63 62 60 59 58 57 56 55 52 51 50 47 
   7   0   0   0   0   0   0   0   0   0   0   0   0   0   0   0   1   0   0   2   0   0   0   0   0   0   0   0   0   0   0  14 97 94 74 72 69 66 64 63 59 52 46 42 36 26 
   7   0   2   1   6   0   0   0   4   0   0   8   0   0   0   0   0   0   0   0   0   1   0   0   0   0   0   0   0   0   0  13 101 98 95 74 70 66 63 61 52 45 44 36 34 
   6   0   0   0   0   1   0   0   0   6   0   0   0   0   0   0   0   0   0   0   3   0   0   0   0   0   0   0   0  10   0  12 74 69 67 66 64 63 62 51 50 42 36 26 
   7   0   0   0   4   0   0   0   0   0   0   0   0   0   0   1   0   0   0   0   0   0   0   9   0   0   0   0   0   0   0   6 62 60 57 54 46 20 
   7   0   0   0   0   6   0   0   0   0   0   0   0   0   0   0   0   0   0   0   0   0   0   6   2   0   1   1   0   0   0  16 101 99 75 73 72 69 66 64 63 61 60 58 56 51 47 46 
   3   1   0   0   0   0   0   0   0   0   0   8   0   0   0   0   0   0   0   0   5   0   0   0   0   0   0   0   0   0   0  14 100 95 75 74 73 67 66 65 63 61 60 58 45 38 
  10   6   5   0   0   0   0   7   0   0   0   0   0   0   0   0   0   0   0   0   0   0   0   0   4   0   0   0   0   0   0  13 101 100 75 67 64 61 58 56 53 50 45 43 42 
   4   0   0   0   0   0   0   0   0   0   5   0   0   0   0   0   0   0   0   0   0   0   0   0   0   0   0   0   0   0   0  17 101 99 98 97 94 76 74 72 70 69 67 66 64 61 57 42 36 
   4   0  10   0   0   0   0   0   4   0   0   6   0   0   3   0   0   0   0   4  10   0   2   0   0   0   0   0   0   0   0  16 98 92 90 85 76 74 73 72 69 66 63 61 58 52 46 39 
   8   0   0   0   0   0   0   0   0   0   0   0   0   0   0   0   0   0   0   0   0   0   0   0   0   2  10   0   0   0   0  13 98 97 94 74 67 66 65 64 63 61 42 36 34 
   5   0   0   0   0   0   0   0   0   0   0   0   0   0   0   0   0   0   0   0   0   0   0   0   0   0   0   0   0   0   0  11 96 74 72 70 66 63 59 51 48 42 26 
  10   0   6   0   4   0   0   0   3   0   0   0   0   0   0   0   0   0   0   0   0   0   0   0   0   0   0   0   0   0   0  18 101 100 99 97 96 95 91 90 76 75 74 72 67 66 63 54 50 37 
   8   0   0   0  10   0   0   0   8   6   7   6   6   0   3   0   0   0   0   0   0   0   0   0   0   0   0   0   0   0   0  13 92 85 73 72 66 65 61 58 57 54 52 51 46 
   5   6   0   0   0   0   0   0   5   9   0   8   0   0   0   0   0   0   0   0   0   0   0  10   0   0   8   0   0   7   0  11 100 97 96 94 74 72 66 59 50 42 26 
   2   5   0   0   0   0   0   0   0   0   0   0   0   0   0   0   7   0   0   0   0   0   3   3   7   0   0   0   1   0   0  17 100 98 96 95 94 90 89 73 72 71 67 66 64 63 62 61 58 
   4   0   0   0   0   9   0   0   0   0   0   0   0   0   0   0   0   0   0   8   0   8   0   0   2   0   0   0   0   0   0  16 100 96 95 93 90 89 87 86 85 83 74 73 60 58 53 51 
  10   0   0   0   0   0   0   0   0   0   0   0   0   0   8   0   0   0   0   0   0   0   0   5   0   0   0   0   0   7   0  10 92 89 85 74 72 67 63 61 58 39 
   4   0   0   0   6   0   0   0   0   8   0   0   0   0   0   0   0   0   0   7   0   0   0   0   0   0   0   0   0   0   0  14 99 97 94 92 90 88 79 76 66 63 62 60 59 52 
   8   0   0   0   0   0   5   0   0   0   0   0   0   0   0   0   0   0   0   0   0   0   0   0   0   0   0   0   0   0   0  13 100 97 96 95 94 93 74 71 66 65 59 56 48 
   5   0   0   0   0   0   0   0   0   0   0   0   0   0   0   0   0   0   1   0   0   5   0   0   0   0   0   0   9   0   0  15 101 99 98 95 90 89 87 86 85 79 73 71 68 61 58 
   1   0   0   0   0   0   0   0   0   0   4   0   0   0   0   0   0   0   0   0   0   0   0   0   5   0   0   0   0   0   0  15 101 98 94 93 92 91 90 89 86 81 74 72 67 66 58 
   3   0   0   0   0   0   0   0   0   0   0   0   0   0  10   0   0   0   0   0   0   0   0   0   0   0   0   0   0   0   0  12 101 97 95 92 91 90 89 75 72 71 58 50 
  10   0   0   0   0   0   0   0   0   0  10   0   0   8   9   0   0   0   0   0   0   0   0   0   0   4   6  10   0   0   0  16 100 98 97 95 92 90 88 86 85 82 80 78 73 72 67 65 
   2   0   0   0   0   7   0   5   0   0   0   0   8   0   0   0   0   0   0  10   0   0   0   0   0   0   0   0   0   0   0  13 96 95 91 90 89 87 86 85 83 80 69 68 51 
   5   0   0   0   0   0   0   0   0   0   0   0   0   0   0   0   0   0   0   0   0   0   0   0   0   0   0   0   0   0   0  12 99 95 93 91 89 87 85 83 81 73 58 57 
   5   0   0   5   0   0   0   0   0   0   0   0   0   0   6   7   0   0   0   0   0   0   0   5   7  10   0   4   0   0   0  14 96 95 93 90 89 88 87 86 82 77 74 73 72 56 
   4   0   0   0   0  10   0   0   0   0   0   0   0   0   0   0   0   0   0   0   6   0   0   0   0   0   0   0   0   0   0  13 96 91 90 89 87 86 85 81 78 75 72 71 58 
   9   0   0   7   0   0   0   0   0   9   0   6   0   0   0   0   0   0   0   6   0   0   0   0   0   0   0   0   0   8   0   9 100 99 93 92 91 90 84 72 50 
   6   0   0   4   0   0   0   0   0   0   0   0   0   0   0   0   0   0   0   0   0   0   0   0   0   0   5   0   7   7   0  14 100 96 94 92 90 89 88 87 86 85 84 75 69 66 
   1   5   0   0   0   0   0   0   7   0   0   0   0   0   0   8   0   0   0   0   0   0   0   0   7   0   0   0   0  10   0  13 100 96 93 91 90 89 87 86 81 79 78 71 58 
   1   0   0   0   0   0   0   0   7   6   0   0   0   0   0   5  10   0   0   0   0   0   0   0   0   0   0   0   0   0   0  11 94 93 92 89 86 85 83 81 71 70 58 
   5   0   0   7   0   0   0   9   0   0   0   0   0   0   0   0   0   0   0   0   0   0   0   0   0   0   0   0   0   0   4   8 101 99 96 92 90 89 72 50 
   3   6   0   0   0   0   7   0   0   0   0   0   8   0   0   0   0   0   0   0   0   0   0   0   0   0   0   0   0   0   2   8 99 96 87 86 80 79 75 51 
   1   8   0   5   0   0   0   0   0   0   0   0   0   0  10   0   4   0   0   0   0   0   0   0   0   0   3   0   0   0   0  15 99 97 96 95 93 91 90 89 85 84 83 82 80 79 71 
   8   0   0   4   0   7   0   0   4   0   0   0   0   0   6   0   4   0   8   0   0   0   0   0   0   0   0   0   0   0   0  12 97 94 92 91 88 84 82 81 80 77 70 67 
   2   0   0   0   0   0   0   0   0   0   0   0   7   0   0   0   7   0   0   7   0  10   0   0   0   0   0   0   0   0  10  12 95 93 91 89 87 85 83 82 81 78 73 71 
   1   0   0   0   0   0   0   0   0   0   0   0   0   0   5   0   0   0   0   0   0   0   9   0   0   0   4   0   0   0   0  12 99 98 93 90 89 88 86 85 83 79 77 74 
  10   0   0   7   0   0   6   0   0   0   8   0   7   0   0   8   0   0   0   0   0   0   0   0   0   6   0   3   0   0   0  11 99 94 92 88 87 86 80 79 78 77 73 
   4   0   0   0   0   0   0   5   0   7   0   6   0   0   0   0   0   0   6   0   0   0   0   0   0   0   0   0   0   0   0   4 86 85 84 51 
   8   0   0   0   0   0   0   0   0   0   0   0   0   8   0   0   0   0   0   0   4   0   0   0   0   0   0   0   0   0   0  11 100 96 95 91 89 87 86 83 80 79 78 
   4   0   7   0   0   0   0   0   0   0   0   0   0   0   0   0   0   0   0   6   0   0   0   0   7   0   6   0   3   0   0   8 98 90 88 85 83 82 71 68 
   6   0   0   0   0   9   0   0   0   0   0   0   0   0   0   0   0   0   0   7   0   0   0   0   0   0   5   0   0   0   3  10 92 90 89 86 85 83 82 80 79 78 
   6   6   0   0   0   0   0   0   0   0   0   6   0   0   0   0   0   0   0   0   0   0   0   0   0   0   0   6   0   0   0   8 99 98 88 86 82 78 72 71 
   2   0   0   0  10   0   0   0   0   0   0   0   0   0   0   0   0   0   0   0   0   0   0   0   0   0   0   0   0   0   0   9 87 86 85 83 82 81 80 78 77 
   6   0   0   0   0   0   7   0   0   0   0   5   0   0   0   0   0   8   6   0   0   0   0   0   0   0   0   0   0   0   0   7 97 94 88 82 81 78 71 
   9   9   0   0   0   0   0   0   0   0   0   0   0   0   0   0   0   0   0   0   0   0   4   0   0   0   8   0   0   0   0   6 91 84 81 80 78 67 
   4   0   0   0   0   0   0  10   0   0   0   0   0   0   5   0   0   0   0   0   0   0   0   0   0   0   0   0   0   0   0   5 92 88 80 72 66 
   1   0   0   0   0   4   0   0   0   0   7   6   6   0   0   0   0   0   0   2   0   0   0   0   0   0   0   0   0   5   0   6 98 89 84 79 78 71 
  10   0   0   0   0   0   0   0   0   0   6   0   0   0   0   0   5   0   0   0   6   0   0  10   4   0   0   0   0   0   0   5 95 90 84 79 66 
   6   0   0   6   0   0   6   0   0   0   5   8   6   0   0   0   0   0   0   0   0   0   5  10   0   0   0   9   5   0   0   6 85 84 81 80 79 78 
   3   0   8   0   0   0   0   0   0   5   0   0   0   0   0   0   5   0   0   0   0   0   0   0   0   0   0   8   7   4   0   5 90 80 79 78 71 
   3   0   0   0   0   5   0   0   0   0   0   0   0   0   0   0   6   0   0   6   0   0   0   0   0   0   0   0   0   0   0   5 88 84 82 80 77 
   9   0   0   0   5   0   0   0   0   0   0   0   8   0   0   0   0   0   0   0   7   6   0   0   0   0   0   4   0   0   0   5 89 87 85 82 77 
  10   0   0   0   6   0   5   0   0   0   4   9   0   0   0   3   0   0   0   0   0   0   0   5   0   0   0   0   0   0   0   4 98 80 78 71 
   5   5   0   0   0   0   0   0   0   0   0   0   0   6   0   0   9   0   0   4   0   9   0   4   0   0   0   0   0   0   0   4 93 91 80 77 
   3   0   0   0   0   0   0   0   0   0   0   0   0   0   0   0   0   0   0   0   0   0   7   0   0   0   0   0   0   0   0   4 86 85 83 77 
   9   0   6   7   0   0   0   0  10   4   0   0   0   0   0   0   0   0   0   0   0   5   0   0   0   6   0   0   0   0   0   3 84 81 77 
  10   0   0   0   0   6   0   0   0   8   0   0   0   0   0   9   0   0   0   0   0   5   0   0   0   0   0   0   0   0   0   3 92 85 77 
   7  10   0   8   0   0   0   5   0   0   0   0   0   0   0   0   0   0   0   0   0   0   0   0   0   0   0   0   0   0   0   3 91 81 77 
   4   6   0   0   6   0   0   0   0   0   8   0   0   9   0   6   0   0   0   7   0   0   0   0   0   0   0   7   0   0   0   2 78 77 
   5   7   0   0   0   0   0   0   0   0   0   0   0   0   0   0   0   0   0   0   0   0   0   0   0   0   0   0   0   0   0   2 87 83 
   1   0   0   0   0   0   0   0   0   5   0   0   0   0   0   0   0   0   7   0   0   2   0   0   0   0   0   0   5   4   0   2 81 78 
   6   0   0   0   0   0   0   0   0   0   0   0   0   0   0   0   0   0   0   0   0   0   0   0  10   0   0   0   0   0   0   2 79 78 
   9   0   0   0   3   0   0   0   4   0   0   0   0   0   0   0   6   0   0   0   0   0   0   0   0   0   0   0   0   0   0   2 79 78 
  10   0   0   0   0   0   0   0   0   0   0   0   0   0   0   0   0   0   0   0   0   0   0   0   0   0   0   0   0   0   0   1 77 
   1   0   0   5   0   3   0   0   0   0   0   0   0   0   0   0   0   0   0   0   9   0   0   0   0  10   0   5   0   0   0   1 79 
   1   5   3   0   0   0   7   0   8   0   0   0   0   0   0   0   0   0   0   0   4   0   0   6   0   0   0  10   0   0   8   1 84 
   6   5   0   0   0   0   0   0   0   0   0   0   0   0   0   5   2   0   0   0   0   0   0   0   0   0   0   0   0   0   0   1 78 
   9   0   0   0   0   6   0   0   0   0   0   3   6   4   4   0   0   0   0   0   0  10   0   0   0   0   0   0   0   0   0   1 83 
   8   0   0   5   0   0   0   0   0   0   0   0   0   0   0   0   0   0   0   0   0   0   0   0   0   0   0   0   0   0   0   1 86 
   5   0   0   8   0   0   0   0   0   0   0   0   0   0   0   0   0   0   0   0   0   0   8   0   0   0   0   0   0   0   0   1 102
   7   0   0   5   0   0   0   0   0   0   0   0   0   0   0   0   8   0   9   0   0   0   0   0   0   0   0   0   0   0   0   1 102
   6   0   0  10   0   0   0   4   0   0   0   0   0   0   0   0   0   0   0   0   7   0   5   0   0   0   9   7   0   0   0   1 102
   6   0   0   0   0   9   0   0   0   0   0   0   0   0   0   0   0   0   0   8   0   0   0   0   0   0   0   0   0   0   0   1 102
   7   0   0   0   0   0   0   0   0   0   0   0   0   0   0   0   0   0   0   0   0   0   0   0   0   0   0   0   0   0  10   1 102
   7  10   0   0   0   4   0   0   0   0   0   0   8   0   0   0   0   0   0   0   0   0   0   0   0   0   0   0   5   2   0   1 102
   4   0   4   0   0   0   0   0  10   0   0   0   0   0   0   0   0   0   2   0   0   0   0   5   0   0   0   0   0   7   0   1 102
   2   0   0   0   0   0   0   0   0   0   0   3   0   0   0   0   0   0   0   0   0   0  10   0   0   0   0   0   0   0   6   1 102
   9   0   0   0   0   0   0   0   0   0   6   0   0   0   0   0   0   0   0   0   0   0   0   0   0   0   8   0   0   0   0   1 102
   1   0   0   0   0   0   0   0   0   0   0   0   0   0   0   0   0   5   0   0   0   5   7   0   0   0   0   0   0   0   0   1 102
   8   0   0   0   0   6   0   0   0   0   0   0   0   0   6   0   0   0   0   0   0   0   0   6   0   0   0   0   0   0   4   1 102
  10   0   0   0   0   0   0   0  10   0   0   0   0   0   0   0   7   0   0   0   0  10   0   0   0   0   0   0   0   0   0   1 102
   1   0   0   8   6   0   0   0   0   0   0   0   0   0   0   0   0   0   0   0   0   6   0   0   0   0   4   5   6   0   0   1 102
   7   0   0   0   0   0   0   0   5   0   0   0   0   0   0   0   0   7   6   0   0   0   0   0   0   0   0   0   0   0   0   1 102
   6   0   0   0   0   0   0   0   0   0   0   5   0   0   0  10   0   7   8   0   0   0   0   0   0   0   7   0   8   0   0   1 102
   5   2   0   0   0   0   0   0   6   0   0   7   0   5   0   6   0   0   0   0   0   0   0   0   9   0   0   5   9   0   0   1 102
   6   0   0   0   0   0   0   0   0   0   0   0   0   0   0   4   0   7   0   0   0   0   0   0   0   0   0   0   0   6   0   1 102
   6   0   0   0   0   0   0   0   0   0   0   0   0   0   0   0   0   0   0   7   0   6   0   0   7   0   0   0   0   0   0   1 102
   2   0   0   0   0   4   0   0   0   0   0   0   0   0   0   0   0   0   0   0   0   0   0   0   0   0   0   0   0   5   0   1 102
   2   0   9   0   0   0   0   0   0   0   8   0   0   0   0   0   6   0   0   0   0   0   0   0   7   0   6   0   0   0   0   1 102
   2   0   0   0   0   6   0  10   0   0   5   0   3   0   0   0   0   0   0   0   0   0   0   0   0   9   0   0   0   0   0   1 102
  10   0   0   0   0   0   0   0   0   4   0   0   0   0   0   0   0   7   0   0   0   0   0   0   0   0   0   0   0   0   5   1 102
  10   0   0   0   0   0   0   0   0   0   0   0   0   7   0   0   8   0   7   5   0   0   0   0   0   0   0   0   7   0   8   1 102
   5   0   0   0   0   0   0   0   0   0   0   0   0   0   0   0   7   0   0   0   5   2   0   0   0   0   0   6   0   0   0   1 102
   3   9   0   0   0   0  10   0   0   0   6   0   4   0   0   0   0   0   0   0   0   0   0   0   0   0   0   0   0   0   0   1 102
   0   0   0   0   0   0   0   0   0   0   0   0   0   0   0   0   0   0   0   0   0   0   0   0   0   0   0   0   0   0   0   0 
